Version identifier: 22.1.0.0 | 2022-03-09 | 1a383f8ce
CPXPARAM_Threads                                 1
CPXPARAM_MIP_Strategy_VariableSelect             3
CPXPARAM_TimeLimit                               599.99998144400001
1 of 1 MIP starts provided solutions.
MIP start 'm1' defined initial solution with objective 17.0000.
Tried aggregator 2 times.
MIP Presolve eliminated 41 rows and 1 columns.
MIP Presolve added 28 rows and 7 columns.
MIP Presolve modified 120 coefficients.
Aggregator did 7 substitutions.
Reduced MIP has 901 rows, 2100 columns, and 25160 nonzeros.
Reduced MIP has 2100 binaries, 0 generals, 0 SOSs, and 0 indicators.
Presolve time = 0.04 sec. (55.89 ticks)
Probing time = 0.01 sec. (8.47 ticks)
Tried aggregator 1 time.
Detecting symmetries...
MIP Presolve modified 13 coefficients.
Reduced MIP has 901 rows, 2100 columns, and 25571 nonzeros.
Reduced MIP has 2100 binaries, 0 generals, 0 SOSs, and 0 indicators.
Presolve time = 0.03 sec. (28.51 ticks)
Probing time = 0.01 sec. (8.53 ticks)
Clique table members: 495.
MIP emphasis: balance optimality and feasibility.
MIP search method: dynamic search.
Parallel mode: none, using 1 thread.
Root relaxation solution time = 0.14 sec. (142.36 ticks)

        Nodes                                         Cuts/
   Node  Left     Objective  IInf  Best Integer    Best Bound    ItCnt     Gap

*     0+    0                           17.0000     5050.0000              --- 
      0     0      100.0000   423       17.0000      100.0000     1563  488.24%
*     0+    0                           96.0000      100.0000             4.17%
      0     0        cutoff             96.0000      100.0000     1563    4.17%
Detecting symmetries...
      0     2      100.0000    44       96.0000      100.0000     1563    4.17%
Elapsed time = 2.41 sec. (2417.33 ticks, tree = 0.01 MB, solutions = 2)
      1     3      100.0000   396       96.0000      100.0000     4154    4.17%
      3     5      100.0000   246       96.0000      100.0000     6295    4.17%
      5     7      100.0000   107       96.0000      100.0000     7259    4.17%
      8    10      100.0000    84       96.0000      100.0000     9946    4.17%
     10    12      100.0000    90       96.0000      100.0000    11316    4.17%
     13    15      100.0000   130       96.0000      100.0000    14017    4.17%
     15    17      100.0000   325       96.0000      100.0000    18086    4.17%
     17    19      100.0000   288       96.0000      100.0000    19387    4.17%
     19    21      100.0000   184       96.0000      100.0000    20369    4.17%
     26    28      100.0000    92       96.0000      100.0000    24906    4.17%
Elapsed time = 6.70 sec. (6757.54 ticks, tree = 0.15 MB, solutions = 2)
     32    34      100.0000   188       96.0000      100.0000    29806    4.17%
     39    41      100.0000   328       96.0000      100.0000    33687    4.17%
     44    46      100.0000   219       96.0000      100.0000    39144    4.17%
     51    53      100.0000   290       96.0000      100.0000    43754    4.17%
     58    60      100.0000   240       96.0000      100.0000    48344    4.17%
     66    68      100.0000   108       96.0000      100.0000    51406    4.17%
     75    77      100.0000    69       96.0000      100.0000    54808    4.17%
     83    85      100.0000   172       96.0000      100.0000    57813    4.17%
     95    94       99.0000   152       96.0000      100.0000    62097    4.17%
    111   108       99.0000    36       96.0000      100.0000    65107    4.17%
Elapsed time = 16.83 sec. (16774.03 ticks, tree = 0.64 MB, solutions = 2)
*   113    87      integral     0       99.0000      100.0000    65469    1.01%
    120    93      100.0000   118       99.0000      100.0000    68983    1.01%
    127   100      100.0000   282       99.0000      100.0000    72778    1.01%
    136   109      100.0000   123       99.0000      100.0000    76542    1.01%
    144   117      100.0000   245       99.0000      100.0000    81137    1.01%
    152   125      100.0000   196       99.0000      100.0000    84405    1.01%
    160   129    infeasible             99.0000      100.0000    90434    1.01%
    168   135      100.0000   157       99.0000      100.0000    97232    1.01%
    177   136    infeasible             99.0000      100.0000   105167    1.01%
    187   136    infeasible             99.0000      100.0000   113443    1.01%
    195   142      100.0000    80       99.0000      100.0000   119811    1.01%
Elapsed time = 27.14 sec. (26804.05 ticks, tree = 0.89 MB, solutions = 3)
    207   148      100.0000    74       99.0000      100.0000   124813    1.01%
    220   149    infeasible             99.0000      100.0000   133754    1.01%
    237   150      100.0000    92       99.0000      100.0000   140804    1.01%
    254   155      100.0000   170       99.0000      100.0000   143869    1.01%
    268   159      100.0000   161       99.0000      100.0000   146404    1.01%
    285   162    infeasible             99.0000      100.0000   149513    1.01%
    303   162      100.0000   199       99.0000      100.0000   153950    1.01%
    325   164      100.0000    79       99.0000      100.0000   157465    1.01%
    348   165      100.0000    89       99.0000      100.0000   160959    1.01%
    366   167      100.0000   106       99.0000      100.0000   163769    1.01%
Elapsed time = 37.18 sec. (36600.01 ticks, tree = 1.09 MB, solutions = 3)
    390   169      100.0000    75       99.0000      100.0000   167822    1.01%
    409   172      100.0000   134       99.0000      100.0000   171185    1.01%
    431   174      100.0000   131       99.0000      100.0000   174106    1.01%
    449   180      100.0000   132       99.0000      100.0000   176742    1.01%
    469   182      100.0000   102       99.0000      100.0000   180680    1.01%
    491   182      100.0000   103       99.0000      100.0000   184842    1.01%
    509   188      100.0000   187       99.0000      100.0000   188155    1.01%
    526   197      100.0000    86       99.0000      100.0000   190628    1.01%
    549   202      100.0000    98       99.0000      100.0000   193468    1.01%
    573   202      100.0000   189       99.0000      100.0000   196815    1.01%
Elapsed time = 47.33 sec. (46531.81 ticks, tree = 1.37 MB, solutions = 3)
    592   213      100.0000    60       99.0000      100.0000   198729    1.01%
    622   213      100.0000    58       99.0000      100.0000   202379    1.01%
    649   216      100.0000    58       99.0000      100.0000   205474    1.01%
    681   212    infeasible             99.0000      100.0000   209063    1.01%
    710   211      100.0000    60       99.0000      100.0000   212337    1.01%
    738   211      100.0000    62       99.0000      100.0000   215513    1.01%
    765   214      100.0000    62       99.0000      100.0000   218931    1.01%
    792   217      100.0000    62       99.0000      100.0000   222459    1.01%
    818   223      100.0000    62       99.0000      100.0000   225202    1.01%
    855   214      100.0000    62       99.0000      100.0000   230058    1.01%
Elapsed time = 57.66 sec. (56306.62 ticks, tree = 1.47 MB, solutions = 3)
    887   206      100.0000    82       99.0000      100.0000   234756    1.01%
    904   209      100.0000   151       99.0000      100.0000   238995    1.01%
    922   215      100.0000    84       99.0000      100.0000   241967    1.01%
    943   216      100.0000    86       99.0000      100.0000   245650    1.01%
    964   215      100.0000    67       99.0000      100.0000   249324    1.01%
    973   222      100.0000   123       99.0000      100.0000   254064    1.01%
    995   224      100.0000   106       99.0000      100.0000   257220    1.01%
   1007   232      100.0000   127       99.0000      100.0000   260037    1.01%
   1031   238      100.0000    78       99.0000      100.0000   263123    1.01%
   1043   242    infeasible             99.0000      100.0000   267519    1.01%
Elapsed time = 67.63 sec. (66159.85 ticks, tree = 1.70 MB, solutions = 3)
   1063   242    infeasible             99.0000      100.0000   270638    1.01%
   1083   244      100.0000   164       99.0000      100.0000   273885    1.01%
   1101   252      100.0000    72       99.0000      100.0000   276676    1.01%
   1108   257      100.0000   166       99.0000      100.0000   283426    1.01%
   1120   267      100.0000   150       99.0000      100.0000   285116    1.01%
   1140   271      100.0000   142       99.0000      100.0000   288437    1.01%
   1162   272      100.0000   132       99.0000      100.0000   292217    1.01%
   1187   271      100.0000   117       99.0000      100.0000   295338    1.01%
   1207   275      100.0000   125       99.0000      100.0000   298214    1.01%
   1229   279      100.0000   118       99.0000      100.0000   301441    1.01%
Elapsed time = 77.82 sec. (76187.61 ticks, tree = 2.00 MB, solutions = 3)
   1255   281      100.0000   101       99.0000      100.0000   303976    1.01%
   1280   282      100.0000    89       99.0000      100.0000   306332    1.01%
   1299   285      100.0000   105       99.0000      100.0000   310071    1.01%
   1323   285    infeasible             99.0000      100.0000   313514    1.01%
   1338   288      100.0000   208       99.0000      100.0000   317004    1.01%
   1345   295      100.0000   186       99.0000      100.0000   321622    1.01%
   1356   306      100.0000   199       99.0000      100.0000   323702    1.01%
   1370   316      100.0000    68       99.0000      100.0000   326049    1.01%
   1392   320      100.0000   110       99.0000      100.0000   328792    1.01%
   1411   323      100.0000   120       99.0000      100.0000   331451    1.01%
Elapsed time = 87.79 sec. (86016.36 ticks, tree = 2.36 MB, solutions = 3)
   1427   323    infeasible             99.0000      100.0000   335357    1.01%
*  1441+    0                          100.0000      100.0000             0.00%

Clique cuts applied:  5

Root node processing (before b&c):
  Real time             =    2.41 sec. (2417.31 ticks)
Sequential b&c:
  Real time             =   87.84 sec. (85538.21 ticks)
                          ------------
Total (root+branch&cut) =   90.25 sec. (87955.52 ticks)
Primal:	100
Dual:	100
Status:	Optimal
Time:	90.25
Sequence:
	8
	13
	2
	5
	14
	12
	10
	17
	1
	5
	19
	6
	5
	14
	12
	5
	17
	12
	5
	19
	0
	5
	14
	1
	5
	17
	1
	18
	17
	2
	16
	19
	6
	5
	19
	1
	5
	17
	0
	16
	14
	0
	10
	9
	13
	2
	11
	15
	1
	8
	4
	3
	16
	19
	3
	5
	9
	4
	10
	9
	13
	10
	6
	19
	16
	6
	4
	8
	1
	4
	11
	12
	13
	11
	3
	13
	9
	10
	4
	9
	18
	15
	7
	16
	15
	9
	5
	13
	3
	8
	15
	12
	11
	15
	1
	8
	15
	2
	16
	14
